p edge 100 1470
e 1 12 6
e 1 23 7
e 1 34 9
e 1 45 5
e 1 56 8
e 1 67 6
e 1 78 1
e 1 89 2
e 1 100 6
e 1 2 10
e 1 3 8
e 1 4 6
e 1 5 2
e 1 6 8
e 1 7 2
e 1 8 4
e 1 9 4
e 1 10 7
e 1 11 9
e 1 21 2
e 1 31 2
e 1 41 5
e 1 51 9
e 1 61 9
e 1 71 3
e 1 81 7
e 1 91 1
e 2 13 3
e 2 24 7
e 2 35 9
e 2 46 3
e 2 57 9
e 2 68 2
e 2 79 6
e 2 90 10
e 2 11 3
e 2 3 9
e 2 4 2
e 2 5 2
e 2 6 5
e 2 7 1
e 2 8 4
e 2 9 1
e 2 10 10
e 2 12 10
e 2 22 10
e 2 32 5
e 2 42 5
e 2 52 8
e 2 62 3
e 2 72 10
e 2 82 3
e 2 92 9
e 3 14 8
e 3 25 2
e 3 36 9
e 3 47 8
e 3 58 9
e 3 69 3
e 3 80 10
e 3 12 1
e 3 21 3
e 3 4 10
e 3 5 5
e 3 6 8
e 3 7 7
e 3 8 3
e 3 9 8
e 3 10 6
e 3 13 7
e 3 23 1
e 3 33 7
e 3 43 9
e 3 53 6
e 3 63 1
e 3 73 1
e 3 83 2
e 3 93 4
e 4 15 6
e 4 26 6
e 4 37 7
e 4 48 9
e 4 59 7
e 4 70 8
e 4 13 7
e 4 22 6
e 4 31 2
e 4 5 9
e 4 6 5
e 4 7 6
e 4 8 7
e 4 9 7
e 4 10 1
e 4 14 2
e 4 24 2
e 4 34 2
e 4 44 8
e 4 54 3
e 4 64 1
e 4 74 10
e 4 84 4
e 4 94 1
e 5 16 10
e 5 27 7
e 5 38 3
e 5 49 5
e 5 60 5
e 5 14 7
e 5 23 10
e 5 32 2
e 5 41 9
e 5 6 9
e 5 7 8
e 5 8 3
e 5 9 9
e 5 10 3
e 5 15 4
e 5 25 3
e 5 35 1
e 5 45 8
e 5 55 5
e 5 65 1
e 5 75 1
e 5 85 10
e 5 95 8
e 6 17 9
e 6 28 8
e 6 39 8
e 6 50 9
e 6 15 8
e 6 24 4
e 6 33 5
e 6 42 1
e 6 51 5
e 6 7 1
e 6 8 9
e 6 9 2
e 6 10 8
e 6 16 1
e 6 26 10
e 6 36 2
e 6 46 9
e 6 56 5
e 6 66 10
e 6 76 3
e 6 86 10
e 6 96 8
e 7 18 1
e 7 29 2
e 7 40 5
e 7 16 4
e 7 25 8
e 7 34 2
e 7 43 5
e 7 52 4
e 7 61 6
e 7 8 8
e 7 9 10
e 7 10 4
e 7 17 10
e 7 27 3
e 7 37 9
e 7 47 3
e 7 57 1
e 7 67 1
e 7 77 10
e 7 87 8
e 7 97 7
e 8 19 2
e 8 30 1
e 8 17 3
e 8 26 6
e 8 35 7
e 8 44 8
e 8 53 2
e 8 62 10
e 8 71 7
e 8 9 7
e 8 10 9
e 8 18 10
e 8 28 4
e 8 38 7
e 8 48 8
e 8 58 8
e 8 68 1
e 8 78 9
e 8 88 9
e 8 98 2
e 9 20 6
e 9 18 9
e 9 27 1
e 9 36 2
e 9 45 9
e 9 54 4
e 9 63 2
e 9 72 5
e 9 81 8
e 9 10 5
e 9 19 5
e 9 29 6
e 9 39 6
e 9 49 10
e 9 59 2
e 9 69 4
e 9 79 4
e 9 89 8
e 9 99 3
e 10 19 6
e 10 28 3
e 10 37 9
e 10 46 9
e 10 55 2
e 10 64 4
e 10 73 3
e 10 82 7
e 10 91 8
e 10 20 5
e 10 30 2
e 10 40 9
e 10 50 8
e 10 60 9
e 10 70 5
e 10 80 9
e 10 90 8
e 10 100 6
e 11 22 3
e 11 33 10
e 11 44 2
e 11 55 5
e 11 66 1
e 11 77 2
e 11 88 4
e 11 99 3
e 11 12 9
e 11 13 1
e 11 14 7
e 11 15 4
e 11 16 10
e 11 17 9
e 11 18 3
e 11 19 1
e 11 20 10
e 11 21 6
e 11 31 8
e 11 41 2
e 11 51 4
e 11 61 3
e 11 71 7
e 11 81 9
e 11 91 6
e 12 23 1
e 12 34 7
e 12 45 7
e 12 56 3
e 12 67 5
e 12 78 10
e 12 89 3
e 12 100 2
e 12 21 8
e 12 13 6
e 12 14 7
e 12 15 9
e 12 16 3
e 12 17 3
e 12 18 5
e 12 19 9
e 12 20 7
e 12 22 6
e 12 32 5
e 12 42 4
e 12 52 5
e 12 62 10
e 12 72 10
e 12 82 3
e 12 92 2
e 13 24 8
e 13 35 9
e 13 46 2
e 13 57 3
e 13 68 3
e 13 79 1
e 13 90 6
e 13 22 2
e 13 31 2
e 13 14 2
e 13 15 4
e 13 16 3
e 13 17 5
e 13 18 8
e 13 19 10
e 13 20 2
e 13 23 4
e 13 33 1
e 13 43 7
e 13 53 2
e 13 63 8
e 13 73 4
e 13 83 3
e 13 93 10
e 14 25 2
e 14 36 10
e 14 47 9
e 14 58 8
e 14 69 8
e 14 80 4
e 14 23 2
e 14 32 1
e 14 41 8
e 14 15 8
e 14 16 7
e 14 17 3
e 14 18 4
e 14 19 2
e 14 20 3
e 14 24 2
e 14 34 2
e 14 44 9
e 14 54 6
e 14 64 7
e 14 74 4
e 14 84 2
e 14 94 6
e 15 26 10
e 15 37 5
e 15 48 6
e 15 59 7
e 15 70 3
e 15 24 4
e 15 33 2
e 15 42 3
e 15 51 3
e 15 16 4
e 15 17 2
e 15 18 6
e 15 19 1
e 15 20 9
e 15 25 4
e 15 35 5
e 15 45 7
e 15 55 9
e 15 65 9
e 15 75 6
e 15 85 2
e 15 95 9
e 16 27 3
e 16 38 10
e 16 49 8
e 16 60 10
e 16 25 1
e 16 34 10
e 16 43 2
e 16 52 10
e 16 61 1
e 16 17 6
e 16 18 4
e 16 19 10
e 16 20 8
e 16 26 3
e 16 36 1
e 16 46 7
e 16 56 9
e 16 66 1
e 16 76 6
e 16 86 2
e 16 96 4
e 17 28 9
e 17 39 1
e 17 50 4
e 17 26 2
e 17 35 7
e 17 44 10
e 17 53 9
e 17 62 2
e 17 71 2
e 17 18 3
e 17 19 10
e 17 20 10
e 17 27 3
e 17 37 4
e 17 47 3
e 17 57 4
e 17 67 10
e 17 77 6
e 17 87 8
e 17 97 6
e 18 29 3
e 18 40 10
e 18 27 3
e 18 36 9
e 18 45 10
e 18 54 10
e 18 63 10
e 18 72 1
e 18 81 8
e 18 19 3
e 18 20 4
e 18 28 6
e 18 38 4
e 18 48 10
e 18 58 2
e 18 68 7
e 18 78 8
e 18 88 6
e 18 98 8
e 19 30 1
e 19 28 3
e 19 37 5
e 19 46 10
e 19 55 10
e 19 64 10
e 19 73 10
e 19 82 9
e 19 91 5
e 19 20 10
e 19 29 8
e 19 39 2
e 19 49 1
e 19 59 10
e 19 69 4
e 19 79 6
e 19 89 9
e 19 99 4
e 20 29 10
e 20 38 6
e 20 47 8
e 20 56 6
e 20 65 5
e 20 74 8
e 20 83 7
e 20 92 7
e 20 30 2
e 20 40 3
e 20 50 5
e 20 60 1
e 20 70 4
e 20 80 4
e 20 90 2
e 20 100 6
e 21 32 1
e 21 43 5
e 21 54 8
e 21 65 7
e 21 76 3
e 21 87 6
e 21 98 8
e 21 22 5
e 21 23 4
e 21 24 3
e 21 25 1
e 21 26 1
e 21 27 2
e 21 28 2
e 21 29 5
e 21 30 10
e 21 31 8
e 21 41 10
e 21 51 1
e 21 61 3
e 21 71 10
e 21 81 4
e 21 91 1
e 22 33 3
e 22 44 5
e 22 55 7
e 22 66 5
e 22 77 5
e 22 88 1
e 22 99 1
e 22 31 3
e 22 23 9
e 22 24 8
e 22 25 7
e 22 26 8
e 22 27 7
e 22 28 10
e 22 29 7
e 22 30 7
e 22 32 8
e 22 42 8
e 22 52 1
e 22 62 8
e 22 72 3
e 22 82 10
e 22 92 8
e 23 34 9
e 23 45 10
e 23 56 10
e 23 67 5
e 23 78 5
e 23 89 7
e 23 100 10
e 23 32 9
e 23 41 3
e 23 24 10
e 23 25 2
e 23 26 10
e 23 27 6
e 23 28 8
e 23 29 5
e 23 30 8
e 23 33 2
e 23 43 1
e 23 53 2
e 23 63 10
e 23 73 10
e 23 83 6
e 23 93 6
e 24 35 7
e 24 46 2
e 24 57 3
e 24 68 2
e 24 79 9
e 24 90 9
e 24 33 7
e 24 42 5
e 24 51 5
e 24 25 10
e 24 26 3
e 24 27 6
e 24 28 8
e 24 29 10
e 24 30 6
e 24 34 2
e 24 44 6
e 24 54 3
e 24 64 7
e 24 74 5
e 24 84 7
e 24 94 1
e 25 36 6
e 25 47 10
e 25 58 8
e 25 69 2
e 25 80 6
e 25 34 4
e 25 43 10
e 25 52 6
e 25 61 6
e 25 26 9
e 25 27 6
e 25 28 6
e 25 29 5
e 25 30 4
e 25 35 3
e 25 45 8
e 25 55 3
e 25 65 6
e 25 75 3
e 25 85 5
e 25 95 8
e 26 37 2
e 26 48 7
e 26 59 8
e 26 70 5
e 26 35 8
e 26 44 2
e 26 53 5
e 26 62 4
e 26 71 9
e 26 27 8
e 26 28 6
e 26 29 1
e 26 30 6
e 26 36 3
e 26 46 2
e 26 56 6
e 26 66 3
e 26 76 5
e 26 86 5
e 26 96 8
e 27 38 4
e 27 49 2
e 27 60 1
e 27 36 7
e 27 45 4
e 27 54 6
e 27 63 9
e 27 72 5
e 27 81 9
e 27 28 7
e 27 29 3
e 27 30 5
e 27 37 8
e 27 47 1
e 27 57 1
e 27 67 3
e 27 77 10
e 27 87 8
e 27 97 2
e 28 39 2
e 28 50 2
e 28 37 1
e 28 46 5
e 28 55 4
e 28 64 8
e 28 73 9
e 28 82 8
e 28 91 7
e 28 29 1
e 28 30 6
e 28 38 5
e 28 48 9
e 28 58 4
e 28 68 7
e 28 78 1
e 28 88 10
e 28 98 6
e 29 40 4
e 29 38 7
e 29 47 2
e 29 56 6
e 29 65 5
e 29 74 1
e 29 83 7
e 29 92 9
e 29 30 9
e 29 39 3
e 29 49 7
e 29 59 4
e 29 69 7
e 29 79 3
e 29 89 7
e 29 99 9
e 30 39 10
e 30 48 8
e 30 57 6
e 30 66 9
e 30 75 8
e 30 84 2
e 30 93 5
e 30 40 5
e 30 50 5
e 30 60 5
e 30 70 7
e 30 80 9
e 30 90 10
e 30 100 2
e 31 42 6
e 31 53 3
e 31 64 8
e 31 75 1
e 31 86 5
e 31 97 9
e 31 32 9
e 31 33 4
e 31 34 8
e 31 35 9
e 31 36 10
e 31 37 1
e 31 38 7
e 31 39 3
e 31 40 8
e 31 41 1
e 31 51 4
e 31 61 9
e 31 71 9
e 31 81 10
e 31 91 5
e 32 43 10
e 32 54 3
e 32 65 1
e 32 76 4
e 32 87 3
e 32 98 9
e 32 41 4
e 32 33 6
e 32 34 8
e 32 35 10
e 32 36 3
e 32 37 9
e 32 38 7
e 32 39 7
e 32 40 9
e 32 42 4
e 32 52 1
e 32 62 5
e 32 72 2
e 32 82 4
e 32 92 4
e 33 44 6
e 33 55 4
e 33 66 3
e 33 77 8
e 33 88 5
e 33 99 8
e 33 42 8
e 33 51 3
e 33 34 3
e 33 35 9
e 33 36 6
e 33 37 10
e 33 38 10
e 33 39 5
e 33 40 10
e 33 43 4
e 33 53 10
e 33 63 9
e 33 73 7
e 33 83 6
e 33 93 1
e 34 45 2
e 34 56 2
e 34 67 4
e 34 78 7
e 34 89 7
e 34 100 4
e 34 43 9
e 34 52 2
e 34 61 5
e 34 35 3
e 34 36 4
e 34 37 1
e 34 38 2
e 34 39 9
e 34 40 4
e 34 44 10
e 34 54 6
e 34 64 5
e 34 74 10
e 34 84 2
e 34 94 1
e 35 46 5
e 35 57 9
e 35 68 1
e 35 79 5
e 35 90 2
e 35 44 10
e 35 53 1
e 35 62 3
e 35 71 3
e 35 36 6
e 35 37 10
e 35 38 5
e 35 39 8
e 35 40 4
e 35 45 9
e 35 55 4
e 35 65 6
e 35 75 6
e 35 85 4
e 35 95 4
e 36 47 4
e 36 58 4
e 36 69 3
e 36 80 1
e 36 45 9
e 36 54 5
e 36 63 9
e 36 72 7
e 36 81 3
e 36 37 4
e 36 38 2
e 36 39 7
e 36 40 10
e 36 46 7
e 36 56 9
e 36 66 3
e 36 76 10
e 36 86 1
e 36 96 5
e 37 48 8
e 37 59 3
e 37 70 6
e 37 46 4
e 37 55 3
e 37 64 5
e 37 73 2
e 37 82 9
e 37 91 5
e 37 38 3
e 37 39 6
e 37 40 6
e 37 47 5
e 37 57 6
e 37 67 2
e 37 77 1
e 37 87 10
e 37 97 4
e 38 49 5
e 38 60 3
e 38 47 4
e 38 56 7
e 38 65 9
e 38 74 7
e 38 83 5
e 38 92 5
e 38 39 4
e 38 40 4
e 38 48 9
e 38 58 10
e 38 68 9
e 38 78 4
e 38 88 4
e 38 98 3
e 39 50 10
e 39 48 6
e 39 57 5
e 39 66 1
e 39 75 2
e 39 84 5
e 39 93 2
e 39 40 6
e 39 49 1
e 39 59 7
e 39 69 7
e 39 79 3
e 39 89 9
e 39 99 3
e 40 49 4
e 40 58 9
e 40 67 5
e 40 76 7
e 40 85 7
e 40 94 3
e 40 50 6
e 40 60 5
e 40 70 5
e 40 80 10
e 40 90 6
e 40 100 4
e 41 52 9
e 41 63 8
e 41 74 2
e 41 85 6
e 41 96 5
e 41 42 9
e 41 43 9
e 41 44 7
e 41 45 8
e 41 46 5
e 41 47 8
e 41 48 8
e 41 49 5
e 41 50 3
e 41 51 8
e 41 61 4
e 41 71 5
e 41 81 10
e 41 91 7
e 42 53 6
e 42 64 7
e 42 75 2
e 42 86 4
e 42 97 9
e 42 51 2
e 42 43 10
e 42 44 4
e 42 45 9
e 42 46 8
e 42 47 7
e 42 48 7
e 42 49 10
e 42 50 2
e 42 52 2
e 42 62 2
e 42 72 5
e 42 82 4
e 42 92 5
e 43 54 2
e 43 65 7
e 43 76 2
e 43 87 1
e 43 98 5
e 43 52 7
e 43 61 4
e 43 44 8
e 43 45 5
e 43 46 8
e 43 47 1
e 43 48 4
e 43 49 7
e 43 50 4
e 43 53 6
e 43 63 2
e 43 73 10
e 43 83 1
e 43 93 9
e 44 55 5
e 44 66 3
e 44 77 5
e 44 88 6
e 44 99 9
e 44 53 7
e 44 62 5
e 44 71 8
e 44 45 10
e 44 46 4
e 44 47 1
e 44 48 10
e 44 49 2
e 44 50 5
e 44 54 9
e 44 64 9
e 44 74 6
e 44 84 6
e 44 94 10
e 45 56 4
e 45 67 6
e 45 78 8
e 45 89 10
e 45 100 8
e 45 54 8
e 45 63 6
e 45 72 7
e 45 81 2
e 45 46 5
e 45 47 2
e 45 48 7
e 45 49 4
e 45 50 6
e 45 55 9
e 45 65 7
e 45 75 2
e 45 85 1
e 45 95 8
e 46 57 1
e 46 68 8
e 46 79 8
e 46 90 10
e 46 55 8
e 46 64 2
e 46 73 1
e 46 82 9
e 46 91 1
e 46 47 9
e 46 48 4
e 46 49 8
e 46 50 3
e 46 56 6
e 46 66 6
e 46 76 5
e 46 86 2
e 46 96 5
e 47 58 8
e 47 69 3
e 47 80 8
e 47 56 2
e 47 65 10
e 47 74 9
e 47 83 7
e 47 92 1
e 47 48 5
e 47 49 5
e 47 50 4
e 47 57 5
e 47 67 9
e 47 77 2
e 47 87 5
e 47 97 4
e 48 59 1
e 48 70 5
e 48 57 5
e 48 66 3
e 48 75 9
e 48 84 10
e 48 93 4
e 48 49 9
e 48 50 3
e 48 58 10
e 48 68 5
e 48 78 5
e 48 88 6
e 48 98 8
e 49 60 2
e 49 58 7
e 49 67 3
e 49 76 6
e 49 85 9
e 49 94 3
e 49 50 6
e 49 59 5
e 49 69 10
e 49 79 2
e 49 89 4
e 49 99 10
e 50 59 5
e 50 68 7
e 50 77 4
e 50 86 8
e 50 95 3
e 50 60 2
e 50 70 8
e 50 80 3
e 50 90 8
e 50 100 6
e 51 62 10
e 51 73 2
e 51 84 4
e 51 95 4
e 51 52 3
e 51 53 6
e 51 54 10
e 51 55 9
e 51 56 7
e 51 57 9
e 51 58 6
e 51 59 4
e 51 60 3
e 51 61 3
e 51 71 2
e 51 81 7
e 51 91 9
e 52 63 5
e 52 74 3
e 52 85 9
e 52 96 10
e 52 61 10
e 52 53 1
e 52 54 6
e 52 55 10
e 52 56 5
e 52 57 4
e 52 58 8
e 52 59 8
e 52 60 1
e 52 62 9
e 52 72 5
e 52 82 1
e 52 92 10
e 53 64 7
e 53 75 10
e 53 86 4
e 53 97 10
e 53 62 6
e 53 71 5
e 53 54 10
e 53 55 10
e 53 56 5
e 53 57 10
e 53 58 7
e 53 59 6
e 53 60 10
e 53 63 4
e 53 73 10
e 53 83 10
e 53 93 3
e 54 65 1
e 54 76 4
e 54 87 4
e 54 98 7
e 54 63 3
e 54 72 9
e 54 81 8
e 54 55 2
e 54 56 1
e 54 57 10
e 54 58 2
e 54 59 8
e 54 60 4
e 54 64 9
e 54 74 7
e 54 84 6
e 54 94 9
e 55 66 9
e 55 77 6
e 55 88 4
e 55 99 8
e 55 64 10
e 55 73 2
e 55 82 8
e 55 91 2
e 55 56 10
e 55 57 9
e 55 58 10
e 55 59 3
e 55 60 6
e 55 65 4
e 55 75 3
e 55 85 8
e 55 95 1
e 56 67 4
e 56 78 9
e 56 89 9
e 56 100 3
e 56 65 2
e 56 74 1
e 56 83 4
e 56 92 3
e 56 57 8
e 56 58 10
e 56 59 4
e 56 60 9
e 56 66 9
e 56 76 6
e 56 86 4
e 56 96 9
e 57 68 6
e 57 79 6
e 57 90 8
e 57 66 9
e 57 75 10
e 57 84 8
e 57 93 5
e 57 58 9
e 57 59 3
e 57 60 1
e 57 67 6
e 57 77 8
e 57 87 5
e 57 97 7
e 58 69 2
e 58 80 8
e 58 67 9
e 58 76 4
e 58 85 1
e 58 94 4
e 58 59 2
e 58 60 8
e 58 68 7
e 58 78 8
e 58 88 2
e 58 98 8
e 59 70 2
e 59 68 5
e 59 77 9
e 59 86 4
e 59 95 3
e 59 60 3
e 59 69 6
e 59 79 1
e 59 89 6
e 59 99 1
e 60 69 5
e 60 78 3
e 60 87 2
e 60 96 4
e 60 70 10
e 60 80 9
e 60 90 8
e 60 100 2
e 61 72 1
e 61 83 1
e 61 94 9
e 61 62 2
e 61 63 9
e 61 64 1
e 61 65 3
e 61 66 2
e 61 67 8
e 61 68 3
e 61 69 2
e 61 70 4
e 61 71 3
e 61 81 1
e 61 91 5
e 62 73 7
e 62 84 8
e 62 95 10
e 62 71 9
e 62 63 3
e 62 64 6
e 62 65 4
e 62 66 7
e 62 67 6
e 62 68 3
e 62 69 6
e 62 70 6
e 62 72 8
e 62 82 4
e 62 92 1
e 63 74 7
e 63 85 2
e 63 96 1
e 63 72 1
e 63 81 4
e 63 64 3
e 63 65 4
e 63 66 3
e 63 67 8
e 63 68 8
e 63 69 2
e 63 70 3
e 63 73 4
e 63 83 10
e 63 93 7
e 64 75 4
e 64 86 1
e 64 97 8
e 64 73 8
e 64 82 6
e 64 91 6
e 64 65 7
e 64 66 5
e 64 67 1
e 64 68 4
e 64 69 8
e 64 70 5
e 64 74 3
e 64 84 5
e 64 94 2
e 65 76 1
e 65 87 1
e 65 98 4
e 65 74 3
e 65 83 6
e 65 92 7
e 65 66 7
e 65 67 9
e 65 68 2
e 65 69 6
e 65 70 9
e 65 75 1
e 65 85 7
e 65 95 8
e 66 77 2
e 66 88 5
e 66 99 3
e 66 75 2
e 66 84 2
e 66 93 3
e 66 67 6
e 66 68 6
e 66 69 7
e 66 70 10
e 66 76 3
e 66 86 10
e 66 96 4
e 67 78 7
e 67 89 1
e 67 100 8
e 67 76 4
e 67 85 8
e 67 94 10
e 67 68 8
e 67 69 2
e 67 70 5
e 67 77 7
e 67 87 4
e 67 97 8
e 68 79 4
e 68 90 2
e 68 77 9
e 68 86 3
e 68 95 9
e 68 69 3
e 68 70 3
e 68 78 6
e 68 88 1
e 68 98 9
e 69 80 7
e 69 78 2
e 69 87 2
e 69 96 10
e 69 70 4
e 69 79 8
e 69 89 8
e 69 99 9
e 70 79 10
e 70 88 4
e 70 97 2
e 70 80 7
e 70 90 3
e 70 100 9
e 71 82 3
e 71 93 8
e 71 72 6
e 71 73 7
e 71 74 6
e 71 75 1
e 71 76 4
e 71 77 10
e 71 78 7
e 71 79 9
e 71 80 4
e 71 81 9
e 71 91 8
e 72 83 8
e 72 94 9
e 72 81 9
e 72 73 10
e 72 74 9
e 72 75 8
e 72 76 6
e 72 77 10
e 72 78 9
e 72 79 7
e 72 80 5
e 72 82 7
e 72 92 1
e 73 84 1
e 73 95 7
e 73 82 5
e 73 91 4
e 73 74 7
e 73 75 8
e 73 76 1
e 73 77 4
e 73 78 4
e 73 79 5
e 73 80 5
e 73 83 5
e 73 93 7
e 74 85 3
e 74 96 10
e 74 83 9
e 74 92 10
e 74 75 9
e 74 76 7
e 74 77 2
e 74 78 4
e 74 79 3
e 74 80 8
e 74 84 3
e 74 94 8
e 75 86 9
e 75 97 7
e 75 84 2
e 75 93 6
e 75 76 2
e 75 77 9
e 75 78 5
e 75 79 4
e 75 80 5
e 75 85 9
e 75 95 8
e 76 87 1
e 76 98 9
e 76 85 8
e 76 94 10
e 76 77 10
e 76 78 10
e 76 79 8
e 76 80 10
e 76 86 5
e 76 96 1
e 77 88 1
e 77 99 2
e 77 86 7
e 77 95 1
e 77 78 2
e 77 79 10
e 77 80 3
e 77 87 2
e 77 97 4
e 78 89 7
e 78 100 6
e 78 87 8
e 78 96 5
e 78 79 8
e 78 80 3
e 78 88 10
e 78 98 7
e 79 90 8
e 79 88 6
e 79 97 6
e 79 80 7
e 79 89 10
e 79 99 8
e 80 89 3
e 80 98 4
e 80 90 9
e 80 100 7
e 81 92 5
e 81 82 8
e 81 83 7
e 81 84 7
e 81 85 8
e 81 86 4
e 81 87 6
e 81 88 4
e 81 89 9
e 81 90 6
e 81 91 4
e 82 93 7
e 82 91 5
e 82 83 4
e 82 84 10
e 82 85 7
e 82 86 8
e 82 87 4
e 82 88 1
e 82 89 8
e 82 90 8
e 82 92 8
e 83 94 10
e 83 92 7
e 83 84 2
e 83 85 8
e 83 86 2
e 83 87 3
e 83 88 6
e 83 89 10
e 83 90 9
e 83 93 9
e 84 95 1
e 84 93 2
e 84 85 7
e 84 86 10
e 84 87 7
e 84 88 2
e 84 89 4
e 84 90 3
e 84 94 9
e 85 96 4
e 85 94 10
e 85 86 2
e 85 87 7
e 85 88 3
e 85 89 1
e 85 90 6
e 85 95 6
e 86 97 9
e 86 95 2
e 86 87 4
e 86 88 3
e 86 89 1
e 86 90 8
e 86 96 1
e 87 98 5
e 87 96 2
e 87 88 6
e 87 89 9
e 87 90 10
e 87 97 7
e 88 99 8
e 88 97 1
e 88 89 5
e 88 90 1
e 88 98 7
e 89 100 5
e 89 98 4
e 89 90 9
e 89 99 8
e 90 99 10
e 90 100 6
e 91 92 7
e 91 93 8
e 91 94 9
e 91 95 3
e 91 96 1
e 91 97 10
e 91 98 6
e 91 99 7
e 91 100 10
e 92 93 8
e 92 94 6
e 92 95 10
e 92 96 6
e 92 97 2
e 92 98 3
e 92 99 4
e 92 100 8
e 93 94 10
e 93 95 9
e 93 96 6
e 93 97 5
e 93 98 4
e 93 99 9
e 93 100 6
e 94 95 8
e 94 96 3
e 94 97 1
e 94 98 1
e 94 99 7
e 94 100 8
e 95 96 7
e 95 97 1
e 95 98 1
e 95 99 10
e 95 100 2
e 96 97 3
e 96 98 2
e 96 99 2
e 96 100 2
e 97 98 7
e 97 99 2
e 97 100 9
e 98 99 1
e 98 100 4
e 99 100 4